 $rem
 JOBTYPE OPT
 EXCHANGE B3LYP
! CORRELATION PBE
! UNRESTRICTED TRUE
 SCF_ALGORITHM diis
 SCF_MAX_CYCLES 150
 BASIS LANL2DZ
 ECP LANL2DZ
 WAVEFUNCTION_ANALYSIS FALSE
 GEOM_OPT_MAX_CYCLES 300

scf_convergence 6

 SYM_IGNORE TRUE
 SYMMETRY   FALSE

molden_format true
 $end


$molecule
1 1
  C  -0.387300   1.188400  -2.481800 
  C   0.713100   0.873900  -1.686200 
  C  -1.636700   0.714100  -2.086800 
  H  -0.283900   1.778400  -3.391400 
  C  -1.765700  -0.071300  -0.927600 
  H  -2.519200   0.949500  -2.680900 
  C  -0.657200  -0.400900  -0.159200 
  H  -2.756300  -0.427400  -0.627900 
  C   0.634000   0.059600  -0.520000 
  H  -0.766700  -1.026000   0.730100 
  O   2.039100   1.320500  -2.026100 
  C   2.103900   2.645600  -2.651400 
  H   1.858600   2.507100  -3.713000 
  H   3.139400   2.999600  -2.515600 
  H   1.396500   3.316700  -2.146500 
  N   1.820600  -0.232100   0.154600 
  C   1.820800  -0.981900   1.383600 
  C   2.230700  -0.316700   2.565000 
  C   1.504000  -2.362300   1.403800 
  C   2.244900  -1.034100   3.770500 
  C   1.492100  -3.032400   2.634600 
  C   1.854400  -2.372900   3.810500 
  H   1.198800  -4.084800   2.673100 
  H   1.837400  -2.907400   4.760700 
  H   2.553800  -0.542400   4.695300 
  C   2.641200   1.144500   2.625000 
  C   3.799400   1.511500   1.662000 
  H   4.447200   0.603100   1.411000 
  H   4.495600   2.200900   2.184800 
  H   3.431300   2.134300   0.777300 
  C   1.434100   2.063600   2.423500 
  H   1.707300   3.121400   2.503300 
  H   0.672300   1.876900   3.195200 
  H   0.935200   1.913300   1.459700 
  H   3.035800   1.340100   3.662900 
  C  -0.081100  -3.914700   0.196500 
  C   1.249700  -3.158300   0.134700 
  H  -0.923200  -3.233000   0.360900 
  H  -0.105400  -4.663800   0.995800 
  H  -0.270100  -4.448500  -0.743500 
  C   2.434500  -4.106700  -0.100000 
  H   1.191900  -2.474700  -0.749700 
  H   2.553400  -4.834200   0.711500 
  H   3.382400  -3.547800  -0.176300 
  H   2.308400  -4.677500  -1.027000 
 Zr   3.687500   0.444000  -0.759600 
  C   4.979600  -1.401000  -0.546200 
  H   5.806100  -1.485000  -1.256500 
  H   4.381200  -2.326200  -0.614100 
  H   5.411100  -1.374200   0.465800 
  C   5.175700   2.037300  -1.349100 
  H   5.122100   3.119200  -1.382000 
  H   5.344400   1.656400  -2.380300 
  H   6.070000   1.768100  -0.756600 
$end
