 $rem
 JOBTYPE OPT
 EXCHANGE B3LYP
! CORRELATION PBE
! UNRESTRICTED TRUE
 SCF_ALGORITHM diis
 SCF_MAX_CYCLES 150
 BASIS LANL2DZ
 ECP LANL2DZ
 WAVEFUNCTION_ANALYSIS FALSE
 GEOM_OPT_MAX_CYCLES 300

scf_convergence 6

 SYM_IGNORE TRUE
 SYMMETRY   FALSE

molden_format true
 $end


$molecule
1 1
  C  -0.392400   0.386400  -2.976700 
  C   0.672800   0.388500  -2.082400 
  C  -1.627300  -0.089700  -2.529700 
  H  -0.291600   0.732500  -4.004200 
  C  -1.774100  -0.558300  -1.215700 
  H  -2.483700  -0.095900  -3.206900 
  C  -0.699200  -0.563300  -0.332600 
  H  -2.748600  -0.927000  -0.881800 
  C   0.567500  -0.086900  -0.740000 
  H  -0.822400  -0.946500   0.685600 
  O   1.988400   0.857900  -2.446500 
  C   2.122000   1.521400  -3.741800 
  H   1.955900   0.765200  -4.523500 
  H   3.154300   1.905000  -3.769900 
  H   1.396000   2.347000  -3.797300 
  N   1.708300  -0.020800   0.072800 
  C   1.737300  -0.587000   1.396000 
  C   2.087800   0.286300   2.461800 
  C   1.517600  -1.962500   1.639200 
  C   1.992400  -0.187600   3.774100 
  C   1.470400  -2.403400   2.970700 
  C   1.658400  -1.519500   4.030500 
  H   1.291900  -3.460500   3.178200 
  H   1.575100  -1.873900   5.058500 
  H   2.182400   0.478400   4.618400 
  C   2.573300   1.711300   2.225200 
  C   1.396000   2.687100   2.207500 
  H   0.649500   2.441000   1.443300 
  H   1.716700   3.722600   2.037200 
  H   0.865800   2.676300   3.171500 
  C   3.617400   2.142100   3.260600 
  H   4.016400   3.141300   3.045300 
  H   4.461200   1.441600   3.308600 
  H   3.188700   2.193300   4.271600 
  H   3.142600   1.803000   1.210600 
  C   0.150900  -3.850300   0.658000 
  C   1.414800  -2.993500   0.525800 
  H  -0.759700  -3.247500   0.577000 
  H   0.107500  -4.387000   1.613900 
  H   0.109300  -4.614600  -0.128900 
  C   2.673800  -3.874500   0.538200 
  H   1.377300  -2.482400  -0.469100 
  H   2.721900  -4.511400   1.430000 
  H   3.587800  -3.270000   0.512900 
  H   2.691700  -4.549600  -0.326100 
 Zr   3.414300   1.065100  -0.719400 
  C   5.249700  -0.071900  -0.093700 
  H   5.727200  -0.650500  -0.890700 
  H   4.905400  -0.781600   0.675700 
  H   6.019700   0.570200   0.348100 
  C   3.996700   3.180700  -1.245100 
  H   3.299800   3.915100  -1.641700 
  H   4.777800   2.981700  -2.004900 
  H   4.498700   3.652300  -0.389500 
$end
